17	4	3
27	26	25	34	32	25	40	
0	0	0	0	0	4	3	2	10	10	2	3	2	3	4
9	4	8	9	0	10	2	1	5	5	1	3	5	6	9
8	0	4	1	9	1	7	9	8	7	2	1	15
10	9	2	7	0	5	3	8	4	6	5	3	8	9	11
7	0	7	3	0	2	3	8	4	1	1	2	7	17
100	8	9	6	6	10	4	4	2	3	3	2	16	17
250	0	10	0	3	3	3	4	4	8	8	1	12
100	10	10	0	9	4	9	4	2	6	1	1	17
200	5	0	7	0	4	10	3	1	4	8	2	10	17
225	4	0	3	0	5	6	1	3	10	1	2	14	17
200	2	0	7	10	3	9	5	6	1	8	1	17
75	3	7	0	10	8	3	10	2	6	7	1	13
8	3	4	4	9	10	10	5	4	1	1	1	17
4	8	0	1	2	4	5	10	6	5	4	1	17
7	2	0	2	9	4	10	10	5	2	9	2	17	17
1	0	8	5	2	6	5	8	10	10	8	1	17
0	0	0	0	0	8	8	10	7	10	6	0
